p edge 40 220
e 1 2
e 1 10
e 1 11
e 1 12
e 1 13
e 1 15
e 1 16
e 1 20
e 1 24
e 1 25
e 1 27
e 1 34
e 1 38
e 2 3
e 2 10
e 2 13
e 2 14
e 2 21
e 2 27
e 3 4
e 3 7
e 3 8
e 3 14
e 3 20
e 3 22
e 3 23
e 3 33
e 3 39
e 4 5
e 4 6
e 4 7
e 4 9
e 4 10
e 4 22
e 4 23
e 4 26
e 4 29
e 4 33
e 4 35
e 4 39
e 4 40
e 5 8
e 5 11
e 5 17
e 5 19
e 5 20
e 5 21
e 5 25
e 5 30
e 5 37
e 6 7
e 6 8
e 6 14
e 6 15
e 6 30
e 6 33
e 6 35
e 6 36
e 7 9
e 7 10
e 7 12
e 7 15
e 7 17
e 7 21
e 7 29
e 7 31
e 7 34
e 7 35
e 7 38
e 8 9
e 8 11
e 8 13
e 8 17
e 8 20
e 8 22
e 8 24
e 8 25
e 8 29
e 8 31
e 8 33
e 8 35
e 8 36
e 8 40
e 9 13
e 9 15
e 9 16
e 9 17
e 9 18
e 9 19
e 9 22
e 9 23
e 9 28
e 9 31
e 9 40
e 10 24
e 10 25
e 10 26
e 10 30
e 10 32
e 10 34
e 10 37
e 10 38
e 11 12
e 11 15
e 11 17
e 11 18
e 11 34
e 11 38
e 12 13
e 12 18
e 12 19
e 12 25
e 12 26
e 12 27
e 12 31
e 12 35
e 12 36
e 12 37
e 12 38
e 12 40
e 13 14
e 13 15
e 13 18
e 13 23
e 13 25
e 13 28
e 13 36
e 14 16
e 14 18
e 14 19
e 14 20
e 14 24
e 14 35
e 14 37
e 15 19
e 15 26
e 15 29
e 15 30
e 15 32
e 16 18
e 16 22
e 16 28
e 16 34
e 16 38
e 16 39
e 17 22
e 17 26
e 17 28
e 17 33
e 17 34
e 17 35
e 17 39
e 17 40
e 18 19
e 18 23
e 18 27
e 18 29
e 18 37
e 18 38
e 19 21
e 19 22
e 19 26
e 19 29
e 19 30
e 19 31
e 19 33
e 19 37
e 20 22
e 20 24
e 20 32
e 20 35
e 20 40
e 21 22
e 21 23
e 21 24
e 21 27
e 21 29
e 21 30
e 21 33
e 21 34
e 22 25
e 22 27
e 22 31
e 22 34
e 22 36
e 22 38
e 22 40
e 23 32
e 23 33
e 23 36
e 24 25
e 24 38
e 24 40
e 25 29
e 25 31
e 25 37
e 25 38
e 26 30
e 26 31
e 26 33
e 26 40
e 27 33
e 27 36
e 27 39
e 28 30
e 28 32
e 28 33
e 28 34
e 28 37
e 29 38
e 29 39
e 30 36
e 31 32
e 31 33
e 33 39
e 34 38
e 35 39
e 36 39
e 37 39
e 37 40
